Version identifier: 12.10.0.0 | 2019-11-26 | 843d4de
CPXPARAM_WorkMem                                 28672
Tried aggregator 2 times.
MIP Presolve modified 114 coefficients.
Aggregator did 75 substitutions.
Reduced MIP has 395 rows, 450 columns, and 1910 nonzeros.
Reduced MIP has 450 binaries, 0 generals, 0 SOSs, and 0 indicators.
Presolve time = 0,00 sec. (2,54 ticks)
Found incumbent of value 370,000000 after 0,01 sec. (4,05 ticks)
Probing time = 0,00 sec. (1,00 ticks)
Tried aggregator 1 time.
Detecting symmetries...
MIP Presolve eliminated 60 rows and 0 columns.
MIP Presolve added 120 rows and 0 columns.
Reduced MIP has 455 rows, 450 columns, and 1970 nonzeros.
Reduced MIP has 450 binaries, 0 generals, 0 SOSs, and 0 indicators.
Presolve time = 0,00 sec. (2,32 ticks)
Probing time = 0,00 sec. (0,98 ticks)
Clique table members: 1405.
MIP emphasis: balance optimality and feasibility.
MIP search method: dynamic search.
Parallel mode: deterministic, using up to 16 threads.
Root relaxation solution time = 0,01 sec. (2,56 ticks)

        Nodes                                         Cuts/
   Node  Left     Objective  IInf  Best Integer    Best Bound    ItCnt     Gap

*     0+    0                          370,0000        0,0000           100,00%
*     0+    0                          199,0000        0,0000           100,00%
      0     0       78,2235   322      199,0000       78,2235      195   60,69%
      0     0       78,7967   322      199,0000     Cuts: 213      234   60,40%
      0     0       79,4665   322      199,0000     Cuts: 213      278   60,07%
      0     0       81,9138   322      199,0000     Cuts: 176      411   58,84%
      0     0       83,0112   322      199,0000     Cuts: 213      524   58,29%
*     0+    0                          183,0000       83,0112            54,64%
      0     0       83,8860   322      183,0000      Cuts: 37      683   54,16%
      0     0       84,2469   322      183,0000     Cuts: 213      798   53,96%
      0     0       84,9845   322      183,0000     Cuts: 163      918   53,56%
      0     0       85,1796   322      183,0000      Cuts: 21     1024   53,45%
      0     0       85,5461   322      183,0000     Cuts: 195     1167   53,25%
      0     0       85,7717   322      183,0000     Cuts: 166     1259   53,13%
      0     0       85,8865   322      183,0000  ZeroHalf: 24     1329   53,07%
*     0+    0                          182,0000       85,8865            52,81%
      0     0       85,9684   322      182,0000  ZeroHalf: 18     1460   52,24%
      0     0       86,1594   322      182,0000     Cuts: 109     1608   52,24%
      0     0       86,3370   322      182,0000      Cuts: 25     1760   52,24%
      0     0       86,5376   322      182,0000      Cuts: 33     1886   52,24%
      0     0       86,7236   322      182,0000     Cuts: 124     1988   52,24%
      0     0       86,8833   322      182,0000  ZeroHalf: 27     2083   52,24%
      0     0       87,0602   322      182,0000      Cuts: 26     2218   52,16%
      0     0       87,2576   322      182,0000     Cuts: 128     2347   52,06%
      0     0       87,3388   322      182,0000      Cuts: 93     2461   52,01%
      0     0       87,4635   322      182,0000     Cuts: 100     2614   51,94%
      0     0       87,7055   322      182,0000      Cuts: 86     2812   51,81%
      0     0       91,0913   322      182,0000     Cuts: 125     3185   49,95%
      0     0       91,3452   322      182,0000     Cuts: 160     3320   49,81%
      0     0       91,7044   322      182,0000      Cuts: 51     3489   49,61%
      0     0       91,8736   322      182,0000     Cuts: 114     3666   49,52%
*     0+    0                          181,0000       91,8736            49,24%
      0     0       91,9745   322      181,0000      Cuts: 88     3832   49,19%
      0     0       92,0523   322      181,0000      Cuts: 17     3924   49,14%
      0     0       92,0735   322      181,0000      Cuts: 33     4020   49,13%
      0     2       92,0735   450      181,0000       92,4256     4020   48,94%
Elapsed time = 1,06 sec. (732,41 ticks, tree = 0,02 MB, solutions = 5)
   1239   774      172,3094    91      181,0000      102,2060    51079   43,53%
   3319  2085      157,9083    77      181,0000      112,0812   117807   38,08%

Performing restart 1

Repeating presolve.
Tried aggregator 1 time.
MIP Presolve modified 15 coefficients.
Reduced MIP has 455 rows, 450 columns, and 1970 nonzeros.
Reduced MIP has 450 binaries, 0 generals, 0 SOSs, and 0 indicators.
Presolve time = 0,00 sec. (1,33 ticks)
Tried aggregator 1 time.
Reduced MIP has 455 rows, 450 columns, and 1970 nonzeros.
Reduced MIP has 450 binaries, 0 generals, 0 SOSs, and 0 indicators.
Presolve time = 0,00 sec. (1,63 ticks)
Represolve time = 0,02 sec. (14,47 ticks)
   4243     0       93,7773   450      181,0000      Cuts: 47   165021   33,70%
   4243     0       94,5782   450      181,0000      Cuts: 75   165266   33,70%
   4243     0       95,1821   450      181,0000     Cuts: 155   165477   33,70%
   4243     0       96,1884   450      181,0000      Cuts: 85   165675   33,70%
   4243     2       96,1884   449      181,0000      120,0117   165675   33,70%
   4247     4      100,4421   437      181,0000      120,0117   166324   33,70%
   4269    22      130,2476   307      181,0000      120,0117   173005   33,70%
   4463   155      136,5920   318      181,0000      120,0117   204513   33,70%
   4988   577      120,2052   365      181,0000      120,0117   251359   33,70%
   5584   944      171,7062   144      181,0000      120,0117   279106   33,70%
   6271  1235      113,9498   352      181,0000      120,0117   301939   33,70%

Performing restart 2

Repeating presolve.
Tried aggregator 1 time.
Reduced MIP has 455 rows, 450 columns, and 1970 nonzeros.
Reduced MIP has 450 binaries, 0 generals, 0 SOSs, and 0 indicators.
Presolve time = 0,00 sec. (1,16 ticks)
Tried aggregator 1 time.
Reduced MIP has 455 rows, 450 columns, and 1970 nonzeros.
Reduced MIP has 450 binaries, 0 generals, 0 SOSs, and 0 indicators.
Presolve time = 0,00 sec. (1,63 ticks)
Represolve time = 0,03 sec. (17,54 ticks)
   9710     0       97,1617   449      181,0000      Cuts: 49   469541   33,70%
   9710     0       97,9301   449      181,0000      Cuts: 79   469734   33,70%
   9710     0       98,0276   449      181,0000      Cuts: 87   469854   33,70%
   9710     0       98,1551   449      181,0000      Cuts: 75   470014   33,70%
   9710     0       98,1684   449      181,0000      Cuts: 28   470074   33,70%
   9710     0       98,2008   449      181,0000      Cuts: 43   470173   33,70%
*  9710+    0                          180,0000      120,0117            33,33%
   9710     2       98,2008   449      180,0000      120,0117   470173   33,33%
Elapsed time = 6,50 sec. (5896,81 ticks, tree = 0,02 MB, solutions = 6)
* 11079+  774                          173,0000      120,0117            30,63%
  13614  2229      162,2247    54      173,0000      128,5781   652545   25,68%
  18489  5189      169,1310   193      173,0000      139,8603   881988   19,16%
  23203  7160      164,0756   239      173,0000      146,3332  1089875   15,41%
  27875  8488      171,9459   146      173,0000      150,5146  1315758   13,00%
  32406  8958      171,8341   211      173,0000      154,3576  1549369   10,78%
  36655  8082        cutoff            173,0000      158,8833  1764576    8,16%
  42253  3662      170,9476   136      173,0000      166,4167  1979964    3,81%

GUB cover cuts applied:  35
Clique cuts applied:  57
Cover cuts applied:  604
Flow cuts applied:  7
Mixed integer rounding cuts applied:  307
Zero-half cuts applied:  92
Lift and project cuts applied:  54
Gomory fractional cuts applied:  31

Root node processing (before b&c):
  Real time             =    1,06 sec. (730,07 ticks)
Parallel b&c, 16 threads:
  Real time             =   13,83 sec. (12156,11 ticks)
  Sync time (average)   =    2,90 sec.
  Wait time (average)   =    0,01 sec.
                          ------------
Total (root+branch&cut) =   14,88 sec. (12886,18 ticks)
